datos14.sol
# Solution for model RSD
# Objective value = 9.7201534913480819e-06
y[1,1] 0
y[1,2] 0
y[1,3] 0
y[1,4] 0
y[1,5] 0
y[1,6] 0
y[1,7] 0
y[1,8] 0
y[1,9] 0
y[1,10] 0
y[1,11] 0
y[1,12] 0
y[1,13] 0
y[1,14] 0
y[2,1] 1
y[2,2] 0
y[2,3] 0
y[2,4] 0
y[2,5] 0
y[2,6] 0
y[2,7] 0
y[2,8] 0
y[2,9] 0
y[2,10] 0
y[2,11] 0
y[2,12] 0
y[2,13] 0
y[2,14] 0
y[3,1] 0
y[3,2] 0
y[3,3] 0
y[3,4] 0
y[3,5] 0
y[3,6] 0
y[3,7] 1
y[3,8] 0
y[3,9] 0
y[3,10] 0
y[3,11] 0
y[3,12] 0
y[3,13] 0
y[3,14] 0
y[4,1] 0
y[4,2] 1
y[4,3] 1
y[4,4] 0
y[4,5] 0
y[4,6] 0
y[4,7] 0
y[4,8] 0
y[4,9] 0
y[4,10] 0
y[4,11] 0
y[4,12] 0
y[4,13] 0
y[4,14] 0
y[5,1] 0
y[5,2] 0
y[5,3] 0
y[5,4] 0
y[5,5] 0
y[5,6] 0
y[5,7] 0
y[5,8] 0
y[5,9] 0
y[5,10] 0
y[5,11] 0
y[5,12] 0
y[5,13] 0
y[5,14] 0
y[6,1] 0
y[6,2] 0
y[6,3] 0
y[6,4] 0
y[6,5] 0
y[6,6] 0
y[6,7] 0
y[6,8] 0
y[6,9] 0
y[6,10] 0
y[6,11] 0
y[6,12] 0
y[6,13] 0
y[6,14] 0
y[7,1] 0
y[7,2] 0
y[7,3] 0
y[7,4] 0
y[7,5] 0
y[7,6] 0
y[7,7] 0
y[7,8] 0
y[7,9] 0
y[7,10] 0
y[7,11] 0
y[7,12] 0
y[7,13] 0
y[7,14] 0
y[8,1] 0
y[8,2] 0
y[8,3] 0
y[8,4] 0
y[8,5] 1
y[8,6] 0
y[8,7] 0
y[8,8] 0
y[8,9] 0
y[8,10] 0
y[8,11] 0
y[8,12] 0
y[8,13] 0
y[8,14] 0
y[9,1] 0
y[9,2] 0
y[9,3] 0
y[9,4] 0
y[9,5] 0
y[9,6] 0
y[9,7] 0
y[9,8] 1
y[9,9] 0
y[9,10] 0
y[9,11] 0
y[9,12] 0
y[9,13] 0
y[9,14] 0
y[10,1] 0
y[10,2] 0
y[10,3] 0
y[10,4] 0
y[10,5] 0
y[10,6] 0
y[10,7] 0
y[10,8] 0
y[10,9] 0
y[10,10] 0
y[10,11] 0
y[10,12] 0
y[10,13] 0
y[10,14] 0
y[11,1] 0
y[11,2] 0
y[11,3] 0
y[11,4] 0
y[11,5] 0
y[11,6] 0
y[11,7] 0
y[11,8] 0
y[11,9] 0
y[11,10] 1
y[11,11] 0
y[11,12] 0
y[11,13] 0
y[11,14] 0
y[12,1] 0
y[12,2] 0
y[12,3] 0
y[12,4] 0
y[12,5] 0
y[12,6] 1
y[12,7] 0
y[12,8] 0
y[12,9] 0
y[12,10] 0
y[12,11] 0
y[12,12] 0
y[12,13] 0
y[12,14] 0
y[13,1] 0
y[13,2] 0
y[13,3] 0
y[13,4] 0
y[13,5] 0
y[13,6] 0
y[13,7] 0
y[13,8] 0
y[13,9] 0
y[13,10] 0
y[13,11] 1
y[13,12] 1
y[13,13] 0
y[13,14] 0
y[14,1] 0
y[14,2] 0
y[14,3] 0
y[14,4] 1
y[14,5] 0
y[14,6] 0
y[14,7] 0
y[14,8] 0
y[14,9] 1
y[14,10] 0
y[14,11] 0
y[14,12] 0
y[14,13] 1
y[14,14] 0
P[1,1] 0
P[1,2] 0
P[1,3] 0
P[1,4] 0
P[1,5] 0
P[1,6] 0
P[1,7] 0
P[1,8] 0
P[1,9] 0
P[1,10] 0
P[1,11] 0
P[1,12] 0
P[1,13] 0
P[1,14] 0
P[2,1] 0.021
P[2,2] 0
P[2,3] 0
P[2,4] 0
P[2,5] 0
P[2,6] 0
P[2,7] 0
P[2,8] 0
P[2,9] 0
P[2,10] 0
P[2,11] 0
P[2,12] 0
P[2,13] 0
P[2,14] 0
P[3,1] 0
P[3,2] 0
P[3,3] 0
P[3,4] 0
P[3,5] 0
P[3,6] 0
P[3,7] 0.01
P[3,8] 0
P[3,9] 0
P[3,10] 0
P[3,11] 0
P[3,12] 0
P[3,13] 0
P[3,14] 0
P[4,1] 0
P[4,2] 3.1000037106257192e-02
P[4,3] 2.0000012414031949e-02
P[4,4] 0
P[4,5] 0
P[4,6] 0
P[4,7] 0
P[4,8] 0
P[4,9] 0
P[4,10] 0
P[4,11] 0
P[4,12] 0
P[4,13] 0
P[4,14] 0
P[5,1] 0
P[5,2] 0
P[5,3] 0
P[5,4] 0
P[5,5] 0
P[5,6] 0
P[5,7] 0
P[5,8] 0
P[5,9] 0
P[5,10] 0
P[5,11] 0
P[5,12] 0
P[5,13] 0
P[5,14] 0
P[6,1] 0
P[6,2] 0
P[6,3] 0
P[6,4] 0
P[6,5] 0
P[6,6] 0
P[6,7] 0
P[6,8] 4.8166218969896644e-11
P[6,9] 0
P[6,10] 0
P[6,11] 0
P[6,12] 0
P[6,13] 0
P[6,14] 0
P[7,1] 0
P[7,2] 0
P[7,3] 0
P[7,4] 0
P[7,5] 0
P[7,6] 0
P[7,7] 0
P[7,8] 0
P[7,9] 0
P[7,10] 0
P[7,11] 0
P[7,12] 0
P[7,13] 0
P[7,14] 0
P[8,1] 0
P[8,2] 0
P[8,3] 0
P[8,4] 0
P[8,5] 4.4999999999999908e-02
P[8,6] 0
P[8,7] 0
P[8,8] 0
P[8,9] 0
P[8,10] 0
P[8,11] 0
P[8,12] 0
P[8,13] 0
P[8,14] 0
P[9,1] 0
P[9,2] 0
P[9,3] 0
P[9,4] 0
P[9,5] 0
P[9,6] 0
P[9,7] 0
P[9,8] 9.5000332634628953e-02
P[9,9] 0
P[9,10] 0
P[9,11] 0
P[9,12] 0
P[9,13] 0
P[9,14] 0
P[10,1] 0
P[10,2] 0
P[10,3] 0
P[10,4] 0
P[10,5] 0
P[10,6] 0
P[10,7] 0
P[10,8] 0
P[10,9] 0
P[10,10] 0
P[10,11] 0
P[10,12] 0
P[10,13] 0
P[10,14] 0
P[11,1] 0
P[11,2] 0
P[11,3] 0
P[11,4] 0
P[11,5] 0
P[11,6] 0
P[11,7] 0
P[11,8] 0
P[11,9] 0
P[11,10] 1.4999999999987468e-02
P[11,11] 0
P[11,12] 0
P[11,13] 0
P[11,14] 0
P[12,1] 0
P[12,2] 0
P[12,3] 0
P[12,4] 0
P[12,5] 0
P[12,6] 0.00600000004816622
P[12,7] 0
P[12,8] 0
P[12,9] 0
P[12,10] 0
P[12,11] 0
P[12,12] 0
P[12,13] 0
P[12,14] 0
P[13,1] 0
P[13,2] 0
P[13,3] 0
P[13,4] 0
P[13,5] 0
P[13,6] 0
P[13,7] 0
P[13,8] 0
P[13,9] 0
P[13,10] 0
P[13,11] 3.5000025309437216e-02
P[13,12] 3.6000002585938724e-02
P[13,13] 0
P[13,14] 0
P[14,1] 0
P[14,2] 0
P[14,3] 0
P[14,4] 6.1000332101268484e-02
P[14,5] 0
P[14,6] 0
P[14,7] 0
P[14,8] 0
P[14,9] 1.3500191371522546e-01
P[14,10] 0
P[14,11] 0
P[14,12] 0
P[14,13] 9.1000491573628647e-02
P[14,14] 0
Q[1,1] 0
Q[1,2] 0
Q[1,3] 0
Q[1,4] 0
Q[1,5] 0
Q[1,6] 0
Q[1,7] 0
Q[1,8] 0
Q[1,9] 0
Q[1,10] 0
Q[1,11] 0
Q[1,12] 0
Q[1,13] 0
Q[1,14] 0
Q[2,1] 9.9999628937378314e-03
Q[2,2] 0
Q[2,3] 0
Q[2,4] 0
Q[2,5] 0
Q[2,6] 0
Q[2,7] 0
Q[2,8] 0
Q[2,9] 0
Q[2,10] 0
Q[2,11] 0
Q[2,12] 0
Q[2,13] 0
Q[2,14] 0
Q[3,1] 0
Q[3,2] 0
Q[3,3] 0
Q[3,4] 0
Q[3,5] 0
Q[3,6] 0
Q[3,7] 0.00899973747797744
Q[3,8] 0
Q[3,9] 0
Q[3,10] 0
Q[3,11] 0
Q[3,12] 0
Q[3,13] 0
Q[3,14] 0
Q[4,1] 0
Q[4,2] 1.8999999999995021e-02
Q[4,3] 1.5999749892009387e-02
Q[4,4] 0
Q[4,5] 0
Q[4,6] 0
Q[4,7] 0
Q[4,8] 0
Q[4,9] 0
Q[4,10] 0
Q[4,11] 0
Q[4,12] 0
Q[4,13] 0
Q[4,14] 0
Q[5,1] 0
Q[5,2] 0
Q[5,3] 0
Q[5,4] 0
Q[5,5] 0
Q[5,6] 0
Q[5,7] 0
Q[5,8] 0
Q[5,9] 0
Q[5,10] 0
Q[5,11] 0
Q[5,12] 0
Q[5,13] 0
Q[5,14] 0
Q[6,1] 0
Q[6,2] 0
Q[6,3] 0
Q[6,4] 0
Q[6,5] 0
Q[6,6] 0
Q[6,7] 0
Q[6,8] 2.6285480774267930e-07
Q[6,9] 0
Q[6,10] 0
Q[6,11] 0
Q[6,12] -2.6285480774181194e-07
Q[6,13] 0
Q[6,14] 0
Q[7,1] 0
Q[7,2] 0
Q[7,3] 0
Q[7,4] 0
Q[7,5] 0
Q[7,6] 0
Q[7,7] 0
Q[7,8] 0
Q[7,9] 0
Q[7,10] 0
Q[7,11] 0
Q[7,12] 0
Q[7,13] 0
Q[7,14] 0
Q[8,1] 0
Q[8,2] 0
Q[8,3] 0
Q[8,4] 0
Q[8,5] 0.0199999999999999
Q[8,6] 0
Q[8,7] 0
Q[8,8] 0
Q[8,9] 0
Q[8,10] 0
Q[8,11] 0
Q[8,12] 0
Q[8,13] 0
Q[8,14] 0
Q[9,1] 0
Q[9,2] 0
Q[9,3] 0
Q[9,4] 0
Q[9,5] 0
Q[9,6] 0
Q[9,7] 2.6252202256021285e-07
Q[9,8] 5.0000194584035665e-02
Q[9,9] 0
Q[9,10] 0
Q[9,11] 0
Q[9,12] 0
Q[9,13] 0
Q[9,14] 0
Q[10,1] 3.7106262168809523e-08
Q[10,2] 0
Q[10,3] 0
Q[10,4] 0
Q[10,5] 0
Q[10,6] 0
Q[10,7] 0
Q[10,8] 0
Q[10,9] 0
Q[10,10] 0
Q[10,11] 0
Q[10,12] 0
Q[10,13] 0
Q[10,14] 0
Q[11,1] 0
Q[11,2] 0
Q[11,3] 0
Q[11,4] 0
Q[11,5] 0
Q[11,6] 0
Q[11,7] 0
Q[11,8] 0
Q[11,9] 0
Q[11,10] 1.2000037106262169e-02
Q[11,11] 0
Q[11,12] 0
Q[11,13] 0
Q[11,14] 0
Q[12,1] 0
Q[12,2] 0
Q[12,3] 0
Q[12,4] 0
Q[12,5] 0
Q[12,6] 1.0000000000000009e-03
Q[12,7] 0
Q[12,8] 0
Q[12,9] 0
Q[12,10] 0
Q[12,11] 0
Q[12,12] 0
Q[12,13] 0
Q[12,14] 0
Q[13,1] 0
Q[13,2] 0
Q[13,3] 0
Q[13,4] 0
Q[13,5] 0
Q[13,6] 0
Q[13,7] 0
Q[13,8] 0
Q[13,9] 0
Q[13,10] 0
Q[13,11] 2.0000062415711912e-02
Q[13,12] 1.6000265392580246e-02
Q[13,13] 0
Q[13,14] 0
Q[14,1] 0
Q[14,2] 0
Q[14,3] 0
Q[14,4] 4.4000134222766253e-02
Q[14,5] 0
Q[14,6] 0
Q[14,7] 0
Q[14,8] 0
Q[14,9] 7.7002631091878423e-02
Q[14,10] 0
Q[14,11] 0
Q[14,12] 0
Q[14,13] 5.2001122102597996e-02
Q[14,14] 0
I[1,1] 0
I[1,2] 0
I[1,3] 0
I[1,4] 0
I[1,5] 0
I[1,6] 0
I[1,7] 0
I[1,8] 0
I[1,9] 0
I[1,10] 0
I[1,11] 0
I[1,12] 0
I[1,13] 0
I[1,14] 0
I[2,1] 8.5309876082696290e-04
I[2,2] 0
I[2,3] 0
I[2,4] 0
I[2,5] 0
I[2,6] 0
I[2,7] 0
I[2,8] 0
I[2,9] 0
I[2,10] 0
I[2,11] 0
I[2,12] 0
I[2,13] 0
I[2,14] 0
I[3,1] 0
I[3,2] 0
I[3,3] 0
I[3,4] 0
I[3,5] 0
I[3,6] 0
I[3,7] 3.8839101431134717e-04
I[3,8] 0
I[3,9] 0
I[3,10] 0
I[3,11] 0
I[3,12] 0
I[3,13] 0
I[3,14] 0
I[4,1] 0
I[4,2] 1.5056017582387611e-03
I[4,3] 8.8934188989285773e-04
I[4,4] 0
I[4,5] 0
I[4,6] 0
I[4,7] 0
I[4,8] 0
I[4,9] 0
I[4,10] 0
I[4,11] 0
I[4,12] 0
I[4,13] 0
I[4,14] 0
I[5,1] 0
I[5,2] 0
I[5,3] 0
I[5,4] 0
I[5,5] 0
I[5,6] 0
I[5,7] 0
I[5,8] 0
I[5,9] 0
I[5,10] 0
I[5,11] 0
I[5,12] 0
I[5,13] 0
I[5,14] 0
I[6,1] 0
I[6,2] 0
I[6,3] 0
I[6,4] 0
I[6,5] 0
I[6,6] 0
I[6,7] 0
I[6,8] 0
I[6,9] 0
I[6,10] 0
I[6,11] 0
I[6,12] 0
I[6,13] 0
I[6,14] 0
I[7,1] 0
I[7,2] 0
I[7,3] 0
I[7,4] 0
I[7,5] 0
I[7,6] 0
I[7,7] 0
I[7,8] 0
I[7,9] 0
I[7,10] 0
I[7,11] 0
I[7,12] 0
I[7,13] 0
I[7,14] 0
I[8,1] 0
I[8,2] 0
I[8,3] 0
I[8,4] 0
I[8,5] 2.0392483250640213e-03
I[8,6] 0
I[8,7] 0
I[8,8] 0
I[8,9] 0
I[8,10] 0
I[8,11] 0
I[8,12] 0
I[8,13] 0
I[8,14] 0
I[9,1] 0
I[9,2] 0
I[9,3] 0
I[9,4] 0
I[9,5] 0
I[9,6] 0
I[9,7] 0
I[9,8] 4.4456166273625372e-03
I[9,9] 0
I[9,10] 0
I[9,11] 0
I[9,12] 0
I[9,13] 0
I[9,14] 0
I[10,1] 0
I[10,2] 0
I[10,3] 0
I[10,4] 0
I[10,5] 0
I[10,6] 0
I[10,7] 0
I[10,8] 0
I[10,9] 0
I[10,10] 0
I[10,11] 0
I[10,12] 0
I[10,13] 0
I[10,14] 0
I[11,1] 0
I[11,2] 0
I[11,3] 0
I[11,4] 0
I[11,5] 0
I[11,6] 0
I[11,7] 0
I[11,8] 0
I[11,9] 0
I[11,10] 7.0456378000719713e-04
I[11,11] 0
I[11,12] 0
I[11,13] 0
I[11,14] 0
I[12,1] 0
I[12,2] 0
I[12,3] 0
I[12,4] 0
I[12,5] 0
I[12,6] 2.2310156602775396e-04
I[12,7] 0
I[12,8] 0
I[12,9] 0
I[12,10] 0
I[12,11] 0
I[12,12] 0
I[12,13] 0
I[12,14] 0
I[13,1] 0
I[13,2] 0
I[13,3] 0
I[13,4] 0
I[13,5] 0
I[13,6] 0
I[13,7] 0
I[13,8] 0
I[13,9] 0
I[13,10] 0
I[13,11] 1.6692570369806936e-03
I[13,12] 1.6313316919669323e-03
I[13,13] 0
I[13,14] 0
I[14,1] 0
I[14,2] 0
I[14,3] 0
I[14,4] 3.1105890928895758e-03
I[14,5] 0
I[14,6] 0
I[14,7] 0
I[14,8] 0
I[14,9] 6.4357989031009113e-03
I[14,10] 0
I[14,11] 0
I[14,12] 0
I[14,13] 4.3400617657385074e-03
I[14,14] 0
Isqr[1,1] 0
Isqr[1,2] 0
Isqr[1,3] 0
Isqr[1,4] 0
Isqr[1,5] 0
Isqr[1,6] 0
Isqr[1,7] 0
Isqr[1,8] 0
Isqr[1,9] 0
Isqr[1,10] 0
Isqr[1,11] 0
Isqr[1,12] 0
Isqr[1,13] 0
Isqr[1,14] 0
Isqr[2,1] 9.2765642976531444e-07
Isqr[2,2] 0
Isqr[2,3] 0
Isqr[2,4] 0
Isqr[2,5] 0
Isqr[2,6] 0
Isqr[2,7] 0
Isqr[2,8] 0
Isqr[2,9] 0
Isqr[2,10] 0
Isqr[2,11] 0
Isqr[2,12] 0
Isqr[2,13] 0
Isqr[2,14] 0
Isqr[3,1] 0
Isqr[3,2] 0
Isqr[3,3] 0
Isqr[3,4] 0
Isqr[3,5] 0
Isqr[3,6] 0
Isqr[3,7] 3.1035079872121389e-07
Isqr[3,8] 0
Isqr[3,9] 0
Isqr[3,10] 0
Isqr[3,11] 0
Isqr[3,12] 0
Isqr[3,13] 0
Isqr[3,14] 0
Isqr[4,1] 0
Isqr[4,2] 2.2668368178994546e-06
Isqr[4,3] 1.1248225989622142e-06
Isqr[4,4] 0
Isqr[4,5] 0
Isqr[4,6] 0
Isqr[4,7] 0
Isqr[4,8] 0
Isqr[4,9] 0
Isqr[4,10] 0
Isqr[4,11] 0
Isqr[4,12] 0
Isqr[4,13] 0
Isqr[4,14] 0
Isqr[5,1] 0
Isqr[5,2] 0
Isqr[5,3] 0
Isqr[5,4] 0
Isqr[5,5] 0
Isqr[5,6] 0
Isqr[5,7] 0
Isqr[5,8] 0
Isqr[5,9] 0
Isqr[5,10] 0
Isqr[5,11] 0
Isqr[5,12] 0
Isqr[5,13] 0
Isqr[5,14] 0
Isqr[6,1] 0
Isqr[6,2] 0
Isqr[6,3] 0
Isqr[6,4] 0
Isqr[6,5] 0
Isqr[6,6] 0
Isqr[6,7] 0
Isqr[6,8] 0
Isqr[6,9] 0
Isqr[6,10] 0
Isqr[6,11] 0
Isqr[6,12] 0
Isqr[6,13] 0
Isqr[6,14] 0
Isqr[7,1] 0
Isqr[7,2] 0
Isqr[7,3] 0
Isqr[7,4] 0
Isqr[7,5] 0
Isqr[7,6] 0
Isqr[7,7] 0
Isqr[7,8] 0
Isqr[7,9] 0
Isqr[7,10] 0
Isqr[7,11] 0
Isqr[7,12] 0
Isqr[7,13] 0
Isqr[7,14] 0
Isqr[8,1] 0
Isqr[8,2] 0
Isqr[8,3] 0
Isqr[8,4] 0
Isqr[8,5] 4.1585349418957328e-06
Isqr[8,6] 0
Isqr[8,7] 0
Isqr[8,8] 0
Isqr[8,9] 0
Isqr[8,10] 0
Isqr[8,11] 0
Isqr[8,12] 0
Isqr[8,13] 0
Isqr[8,14] 0
Isqr[9,1] 0
Isqr[9,2] 0
Isqr[9,3] 0
Isqr[9,4] 0
Isqr[9,5] 0
Isqr[9,6] 0
Isqr[9,7] 0
Isqr[9,8] 1.9763507456383446e-05
Isqr[9,9] 0
Isqr[9,10] 0
Isqr[9,11] 0
Isqr[9,12] 0
Isqr[9,13] 0
Isqr[9,14] 0
Isqr[10,1] 0
Isqr[10,2] 0
Isqr[10,3] 0
Isqr[10,4] 0
Isqr[10,5] 0
Isqr[10,6] 0
Isqr[10,7] 0
Isqr[10,8] 0
Isqr[10,9] 0
Isqr[10,10] 0
Isqr[10,11] 0
Isqr[10,12] 0
Isqr[10,13] 0
Isqr[10,14] 0
Isqr[11,1] 0
Isqr[11,2] 0
Isqr[11,3] 0
Isqr[11,4] 0
Isqr[11,5] 0
Isqr[11,6] 0
Isqr[11,7] 0
Isqr[11,8] 0
Isqr[11,9] 0
Isqr[11,10] 6.3273624355980213e-07
Isqr[11,11] 0
Isqr[11,12] 0
Isqr[11,13] 0
Isqr[11,14] 0
Isqr[12,1] 0
Isqr[12,2] 0
Isqr[12,3] 0
Isqr[12,4] 0
Isqr[12,5] 0
Isqr[12,6] 6.3444312589269680e-08
Isqr[12,7] 0
Isqr[12,8] 0
Isqr[12,9] 0
Isqr[12,10] 0
Isqr[12,11] 0
Isqr[12,12] 0
Isqr[12,13] 0
Isqr[12,14] 0
Isqr[13,1] 0
Isqr[13,2] 0
Isqr[13,3] 0
Isqr[13,4] 0
Isqr[13,5] 0
Isqr[13,6] 0
Isqr[13,7] 0
Isqr[13,8] 0
Isqr[13,9] 0
Isqr[13,10] 0
Isqr[13,11] 2.7864303713035693e-06
Isqr[13,12] 2.6612439909444512e-06
Isqr[13,13] 0
Isqr[13,14] 0
Isqr[14,1] 0
Isqr[14,2] 0
Isqr[14,3] 0
Isqr[14,4] 9.6999927783993838e-06
Isqr[14,5] 0
Isqr[14,6] 0
Isqr[14,7] 0
Isqr[14,8] 0
Isqr[14,9] 4.1419618948342562e-05
Isqr[14,10] 0
Isqr[14,11] 0
Isqr[14,12] 0
Isqr[14,13] 1.8836137436548393e-05
Isqr[14,14] 0
V[1] 2.4149281149028965e+01
V[2] 2.4149332496135667e+01
V[3] 2.4149367692090095e+01
V[4] 2.4149521733834259e+01
V[5] 2.4148251704211944e+01
V[6] 2.4149298333216016e+01
V[7] 2.4149336220573261e+01
V[8] 2.4148491884006376e+01
V[9] 2.4149034349270835e+01
V[10] 2.4149177834467618e+01
V[11] 2.4149222556465357e+01
V[12] 2.4149309927748881e+01
V[13] 2.4149502065177767e+01
V[14] 2.4150000000000006e+01
Vsqr[1] 583.187780174085
Vsqr[2] 583.190260168148
Vsqr[3] 5.8319196021524840e+02
Vsqr[4] 5.8319940013214853e+02
Vsqr[5] 5.8313806037014535e+02
Vsqr[6] 5.8318860998679020e+02
Vsqr[7] 5.8319044023724325e+02
Vsqr[8] 5.8314966027209209e+02
Vsqr[9] 5.8317586000249719e+02
Vsqr[10] 5.8318279008103957e+02
Vsqr[11] 5.8318495008198329e+02
Vsqr[12] 5.8318916998659108e+02
Vsqr[13] 5.8319844999615816e+02
Vsqr[14] 5.8322250000000008e+02
deltaV[1,1] -2.7600000000000016e+00
deltaV[1,2] -2.4799940630373385e-03
deltaV[1,3] -2.7600000000000016e+00
deltaV[1,4] -2.7600000000000016e+00
deltaV[1,5] -2.7600000000000016e+00
deltaV[1,6] -2.7600000000000016e+00
deltaV[1,7] -2.7600000000000016e+00
deltaV[1,8] -2.7600000000000016e+00
deltaV[1,9] -2.7600000000000016e+00
deltaV[1,10] 4.9900930454214176e-03
deltaV[1,11] -2.7600000000000016e+00
deltaV[1,12] -2.7600000000000016e+00
deltaV[1,13] -2.7600000000000016e+00
deltaV[1,14] -2.7600000000000016e+00
deltaV[2,1] 0
deltaV[2,2] -2.7600000000000016e+00
deltaV[2,3] -2.7600000000000016e+00
deltaV[2,4] -9.1399640004965477e-03
deltaV[2,5] -2.7600000000000016e+00
deltaV[2,6] -2.7600000000000016e+00
deltaV[2,7] -2.7600000000000016e+00
deltaV[2,8] -2.7600000000000016e+00
deltaV[2,9] -2.7600000000000016e+00
deltaV[2,10] -2.7600000000000016e+00
deltaV[2,11] -2.7600000000000016e+00
deltaV[2,12] -2.7600000000000016e+00
deltaV[2,13] -2.7600000000000016e+00
deltaV[2,14] -2.7600000000000016e+00
deltaV[3,1] -2.7600000000000016e+00
deltaV[3,2] -2.7600000000000016e+00
deltaV[3,3] -2.7600000000000016e+00
deltaV[3,4] -7.4399169001253540e-03
deltaV[3,5] -2.7600000000000016e+00
deltaV[3,6] -2.7600000000000016e+00
deltaV[3,7] 0
deltaV[3,8] -2.7600000000000016e+00
deltaV[3,9] -2.7600000000000016e+00
deltaV[3,10] -2.7600000000000016e+00
deltaV[3,11] -2.7600000000000016e+00
deltaV[3,12] -2.7600000000000016e+00
deltaV[3,13] -2.7600000000000016e+00
deltaV[3,14] -2.7600000000000016e+00
deltaV[4,1] -2.7600000000000016e+00
deltaV[4,2] 0
deltaV[4,3] 0
deltaV[4,4] -2.7600000000000016e+00
deltaV[4,5] -2.7600000000000016e+00
deltaV[4,6] -2.7600000000000016e+00
deltaV[4,7] -2.7600000000000016e+00
deltaV[4,8] -2.7600000000000016e+00
deltaV[4,9] -2.7600000000000016e+00
deltaV[4,10] -2.7600000000000016e+00
deltaV[4,11] -2.7600000000000016e+00
deltaV[4,12] -2.7600000000000016e+00
deltaV[4,13] -2.7600000000000016e+00
deltaV[4,14] -2.3099867851556155e-02
deltaV[5,1] -2.7600000000000016e+00
deltaV[5,2] -2.7600000000000016e+00
deltaV[5,3] -2.7600000000000016e+00
deltaV[5,4] -2.7600000000000016e+00
deltaV[5,5] -2.7600000000000016e+00
deltaV[5,6] -2.7600000000000016e+00
deltaV[5,7] -2.7600000000000016e+00
deltaV[5,8] -1.1599901946770437e-02
deltaV[5,9] -2.7600000000000016e+00
deltaV[5,10] -2.7600000000000016e+00
deltaV[5,11] -2.7600000000000016e+00
deltaV[5,12] -2.7600000000000016e+00
deltaV[5,13] -2.7600000000000016e+00
deltaV[5,14] -2.7600000000000016e+00
deltaV[6,1] -2.7600000000000016e+00
deltaV[6,2] -2.7600000000000016e+00
deltaV[6,3] -2.7600000000000016e+00
deltaV[6,4] -2.7600000000000016e+00
deltaV[6,5] -2.7600000000000016e+00
deltaV[6,6] -2.7600000000000016e+00
deltaV[6,7] -2.7600000000000016e+00
deltaV[6,8] 3.8949656859472270e-02
deltaV[6,9] -2.7600000000000016e+00
deltaV[6,10] -2.7600000000000016e+00
deltaV[6,11] -2.7600000000000016e+00
deltaV[6,12] -5.5997877245772543e-04
deltaV[6,13] -2.7600000000000016e+00
deltaV[6,14] -2.7600000000000016e+00
deltaV[7,1] -2.7600000000000016e+00
deltaV[7,2] -2.7600000000000016e+00
deltaV[7,3] -1.5199780051489142e-03
deltaV[7,4] -2.7600000000000016e+00
deltaV[7,5] -2.7600000000000016e+00
deltaV[7,6] -2.7600000000000016e+00
deltaV[7,7] -2.7600000000000016e+00
deltaV[7,8] -2.7600000000000016e+00
deltaV[7,9] 1.4580234746063070e-02
deltaV[7,10] -2.7600000000000016e+00
deltaV[7,11] -2.7600000000000016e+00
deltaV[7,12] -2.7600000000000016e+00
deltaV[7,13] -2.7600000000000016e+00
deltaV[7,14] -2.7600000000000016e+00
deltaV[8,1] -2.7600000000000016e+00
deltaV[8,2] -2.7600000000000016e+00
deltaV[8,3] -2.7600000000000016e+00
deltaV[8,4] -2.7600000000000016e+00
deltaV[8,5] 0
deltaV[8,6] -3.8949714698105709e-02
deltaV[8,7] -2.7600000000000016e+00
deltaV[8,8] -2.7600000000000016e+00
deltaV[8,9] -2.6199730405096489e-02
deltaV[8,10] -2.7600000000000016e+00
deltaV[8,11] -2.7600000000000016e+00
deltaV[8,12] -2.7600000000000016e+00
deltaV[8,13] -2.7600000000000016e+00
deltaV[8,14] -2.7600000000000016e+00
deltaV[9,1] -2.7600000000000016e+00
deltaV[9,2] -2.7600000000000016e+00
deltaV[9,3] -2.7600000000000016e+00
deltaV[9,4] -2.7600000000000016e+00
deltaV[9,5] -2.7600000000000016e+00
deltaV[9,6] -2.7600000000000016e+00
deltaV[9,7] -1.4580292500909309e-02
deltaV[9,8] 0
deltaV[9,9] -2.7600000000000016e+00
deltaV[9,10] -2.7600000000000016e+00
deltaV[9,11] -2.7600000000000016e+00
deltaV[9,12] -2.7600000000000016e+00
deltaV[9,13] -2.7600000000000016e+00
deltaV[9,14] -4.6639997502893493e-02
deltaV[10,1] -4.9901019509661637e-03
deltaV[10,2] -2.7600000000000016e+00
deltaV[10,3] -2.7600000000000016e+00
deltaV[10,4] -2.7600000000000016e+00
deltaV[10,5] -2.7600000000000016e+00
deltaV[10,6] -2.7600000000000016e+00
deltaV[10,7] -2.7600000000000016e+00
deltaV[10,8] -2.7600000000000016e+00
deltaV[10,9] -2.7600000000000016e+00
deltaV[10,10] -2.7600000000000016e+00
deltaV[10,11] -2.1600009437179324e-03
deltaV[10,12] -2.7600000000000016e+00
deltaV[10,13] -2.7600000000000016e+00
deltaV[10,14] -2.7600000000000016e+00
deltaV[11,1] -2.7600000000000016e+00
deltaV[11,2] -2.7600000000000016e+00
deltaV[11,3] -2.7600000000000016e+00
deltaV[11,4] -2.7600000000000016e+00
deltaV[11,5] -2.7600000000000016e+00
deltaV[11,6] -2.7600000000000016e+00
deltaV[11,7] -2.7600000000000016e+00
deltaV[11,8] -2.7600000000000016e+00
deltaV[11,9] -2.7600000000000016e+00
deltaV[11,10] 0
deltaV[11,11] -2.7600000000000016e+00
deltaV[11,12] -2.7600000000000016e+00
deltaV[11,13] -1.3499914174872174e-02
deltaV[11,14] -2.7600000000000016e+00
deltaV[12,1] -2.7600000000000016e+00
deltaV[12,2] -2.7600000000000016e+00
deltaV[12,3] -2.7600000000000016e+00
deltaV[12,4] -2.7600000000000016e+00
deltaV[12,5] -2.7600000000000016e+00
deltaV[12,6] 0
deltaV[12,7] -2.7600000000000016e+00
deltaV[12,8] -2.7600000000000016e+00
deltaV[12,9] -2.7600000000000016e+00
deltaV[12,10] -2.7600000000000016e+00
deltaV[12,11] -2.7600000000000016e+00
deltaV[12,12] -2.7600000000000016e+00
deltaV[12,13] -9.2800095670781957e-03
deltaV[12,14] -2.7600000000000016e+00
deltaV[13,1] -2.7600000000000016e+00
deltaV[13,2] -2.7600000000000016e+00
deltaV[13,3] -2.7600000000000016e+00
deltaV[13,4] -2.7600000000000016e+00
deltaV[13,5] -2.7600000000000016e+00
deltaV[13,6] -2.7600000000000016e+00
deltaV[13,7] -2.7600000000000016e+00
deltaV[13,8] -2.7600000000000016e+00
deltaV[13,9] -2.7600000000000016e+00
deltaV[13,10] -2.7600000000000016e+00
deltaV[13,11] 0
deltaV[13,12] 0
deltaV[13,13] -2.7600000000000016e+00
deltaV[13,14] -2.4050003841921352e-02
deltaV[14,1] -2.7600000000000016e+00
deltaV[14,2] -2.7600000000000016e+00
deltaV[14,3] -2.7600000000000016e+00
deltaV[14,4] 0
deltaV[14,5] -2.7600000000000016e+00
deltaV[14,6] -2.7600000000000016e+00
deltaV[14,7] -2.7600000000000016e+00
deltaV[14,8] -2.7600000000000016e+00
deltaV[14,9] 0
deltaV[14,10] -2.7600000000000016e+00
deltaV[14,11] -2.7600000000000016e+00
deltaV[14,12] -2.7600000000000016e+00
deltaV[14,13] 0
deltaV[14,14] -2.7600000000000016e+00
